(set-info :smt-lib-version 2.6)
(set-logic QF_UFBV)
(set-info :source |
Generated by: Certora
Generated on: 2024-01-16
Generator: The Certora Prover
Application: Web3 security
|)
(set-info :license "https://creativecommons.org/licenses/by/4.0/")
(set-info :category "industrial")
(set-info :status unknown)
(declare-fun x101 () Bool)
(declare-fun x330 () Bool)
(declare-fun x448 () Bool)
(declare-fun x276 () (_ BitVec 256))
(declare-fun x9 () (_ BitVec 256))
(declare-fun x198 () Bool)
(declare-fun x312 () Bool)
(declare-fun x160 () (_ BitVec 256))
(declare-fun x271 () Bool)
(declare-fun x62 () (_ BitVec 256))
(declare-fun x389 () Bool)
(declare-fun x314 () Bool)
(declare-fun x250 () Bool)
(declare-fun x392 () Bool)
(declare-fun x69 () (_ BitVec 256))
(declare-fun x355 () Bool)
(declare-fun x424 () (_ BitVec 256))
(declare-fun x307 () (_ BitVec 256))
(declare-fun x106 () Bool)
(declare-fun x189 () (_ BitVec 256))
(declare-fun x412 () Bool)
(declare-fun x443 () (_ BitVec 256))
(declare-fun x119 () (_ BitVec 256))
(declare-fun x419 () (_ BitVec 256))
(declare-fun x397 () (_ BitVec 256))
(declare-fun x393 () Bool)
(declare-fun x131 () Bool)
(declare-fun x266 () (_ BitVec 256))
(declare-fun x251 () (_ BitVec 256))
(declare-fun x309 () (_ BitVec 256))
(declare-fun x167 () Bool)
(declare-fun x197 () (_ BitVec 256))
(declare-fun x313 () (_ BitVec 256))
(declare-fun x94 ((_ BitVec 256)) (_ BitVec 256))
(declare-fun x463 () Bool)
(declare-fun x293 () Bool)
(declare-fun x75 () (_ BitVec 256))
(declare-fun x1 () (_ BitVec 256))
(declare-fun x137 () Bool)
(declare-fun x183 () (_ BitVec 256))
(declare-fun x461 () (_ BitVec 256))
(declare-fun x433 () Bool)
(declare-fun x139 ((_ BitVec 256) (_ BitVec 256) (_ BitVec 256)) (_ BitVec 256))
(declare-fun x231 () Bool)
(declare-fun x149 () (_ BitVec 256))
(declare-fun x15 () Bool)
(declare-fun x39 () (_ BitVec 256))
(declare-fun x41 () Bool)
(declare-fun x28 () Bool)
(declare-fun x85 () (_ BitVec 256))
(declare-fun x217 () (_ BitVec 256))
(declare-fun x210 () (_ BitVec 256))
(declare-fun x304 () Bool)
(declare-fun x99 () (_ BitVec 256))
(declare-fun x125 () (_ BitVec 256))
(declare-fun x32 () (_ BitVec 256))
(declare-fun x44 () (_ BitVec 256))
(declare-fun x261 () (_ BitVec 256))
(declare-fun x182 () Bool)
(declare-fun x258 () Bool)
(declare-fun x206 () Bool)
(declare-fun x377 () Bool)
(declare-fun x398 () Bool)
(declare-fun x464 () (_ BitVec 256))
(declare-fun x403 () (_ BitVec 256))
(declare-fun x129 () (_ BitVec 256))
(declare-fun x154 () Bool)
(declare-fun x434 () Bool)
(declare-fun x204 () Bool)
(declare-fun x188 () (_ BitVec 256))
(declare-fun x163 ((_ BitVec 256)) (_ BitVec 256))
(declare-fun x185 () (_ BitVec 256))
(declare-fun x68 () Bool)
(declare-fun x2 () (_ BitVec 256))
(declare-fun x364 () (_ BitVec 256))
(declare-fun x401 () Bool)
(declare-fun x195 () (_ BitVec 256))
(declare-fun x222 () Bool)
(declare-fun x456 () Bool)
(declare-fun x88 () Bool)
(declare-fun x295 () (_ BitVec 256))
(declare-fun x356 () (_ BitVec 256))
(declare-fun x335 ((_ BitVec 256)) (_ BitVec 256))
(declare-fun x324 () (_ BitVec 256))
(declare-fun x150 () (_ BitVec 256))
(declare-fun x26 () (_ BitVec 256))
(declare-fun x153 () (_ BitVec 256))
(declare-fun x19 () Bool)
(declare-fun x305 () Bool)
(declare-fun x287 () Bool)
(declare-fun x80 () (_ BitVec 256))
(declare-fun x174 () Bool)
(declare-fun x288 () Bool)
(declare-fun x93 () Bool)
(declare-fun x244 () (_ BitVec 256))
(declare-fun x146 () (_ BitVec 256))
(declare-fun x130 () (_ BitVec 256))
(declare-fun x208 () Bool)
(declare-fun x14 () (_ BitVec 256))
(declare-fun x212 () (_ BitVec 256))
(declare-fun x360 () (_ BitVec 256))
(declare-fun x440 () Bool)
(declare-fun x5 () (_ BitVec 256))
(declare-fun x248 () (_ BitVec 256))
(declare-fun x169 () (_ BitVec 256))
(declare-fun x326 () (_ BitVec 256))
(declare-fun x385 () (_ BitVec 256))
(declare-fun x170 () Bool)
(declare-fun x90 () Bool)
(declare-fun x213 () Bool)
(declare-fun x84 () Bool)
(declare-fun x462 () (_ BitVec 256))
(declare-fun x432 () Bool)
(declare-fun x268 () Bool)
(declare-fun x31 () Bool)
(declare-fun x121 () Bool)
(declare-fun x378 () (_ BitVec 256))
(declare-fun x33 ((_ BitVec 256)) (_ BitVec 256))
(declare-fun x333 () Bool)
(declare-fun x383 () Bool)
(declare-fun x178 () (_ BitVec 256))
(declare-fun x152 () (_ BitVec 256))
(declare-fun x281 () Bool)
(declare-fun x253 () Bool)
(declare-fun x173 () (_ BitVec 256))
(declare-fun x50 () (_ BitVec 256))
(declare-fun x315 () Bool)
(declare-fun x346 () Bool)
(declare-fun x274 () (_ BitVec 256))
(declare-fun x246 () Bool)
(declare-fun x116 () Bool)
(declare-fun x71 () Bool)
(declare-fun x343 () (_ BitVec 256))
(declare-fun x63 () (_ BitVec 256))
(declare-fun x310 () Bool)
(declare-fun x65 () (_ BitVec 256))
(declare-fun x196 () Bool)
(declare-fun x92 () (_ BitVec 256))
(declare-fun x122 () (_ BitVec 256))
(declare-fun x444 () Bool)
(declare-fun x134 () Bool)
(declare-fun x351 () Bool)
(declare-fun x72 () Bool)
(declare-fun x427 () (_ BitVec 256))
(declare-fun x455 () (_ BitVec 256))
(declare-fun x82 () (_ BitVec 256))
(declare-fun x194 () Bool)
(declare-fun x322 () (_ BitVec 256))
(declare-fun x109 () (_ BitVec 256))
(declare-fun x413 () Bool)
(declare-fun x187 () (_ BitVec 256))
(declare-fun x60 () Bool)
(declare-fun x20 () Bool)
(declare-fun x439 () (_ BitVec 256))
(declare-fun x454 () (_ BitVec 256))
(declare-fun x111 () (_ BitVec 256))
(declare-fun x459 () Bool)
(declare-fun x141 () (_ BitVec 256))
(declare-fun x77 () (_ BitVec 256))
(declare-fun x371 () Bool)
(declare-fun x316 () Bool)
(declare-fun x386 () (_ BitVec 256))
(declare-fun x430 () Bool)
(declare-fun x83 () Bool)
(declare-fun x114 () Bool)
(declare-fun x191 () Bool)
(declare-fun x61 () (_ BitVec 256))
(declare-fun x368 () Bool)
(declare-fun x453 () Bool)
(declare-fun x23 () (_ BitVec 256))
(declare-fun x391 () Bool)
(declare-fun x18 () (_ BitVec 256))
(declare-fun x40 () Bool)
(declare-fun x303 () Bool)
(declare-fun x408 () (_ BitVec 256))
(declare-fun x262 ((_ BitVec 256)) (_ BitVec 256))
(declare-fun x74 ((_ BitVec 256)) (_ BitVec 256))
(declare-fun x51 () Bool)
(declare-fun x145 () Bool)
(declare-fun x284 () Bool)
(declare-fun x42 () (_ BitVec 256))
(declare-fun x415 () Bool)
(declare-fun x278 () (_ BitVec 256))
(declare-fun x227 () (_ BitVec 256))
(declare-fun x135 () (_ BitVec 256))
(declare-fun x429 () (_ BitVec 256))
(declare-fun x162 () Bool)
(declare-fun x89 () Bool)
(declare-fun x24 () (_ BitVec 256))
(declare-fun x223 () (_ BitVec 256))
(declare-fun x332 () Bool)
(declare-fun x46 () Bool)
(declare-fun x177 () (_ BitVec 256))
(declare-fun x328 () Bool)
(declare-fun x53 () (_ BitVec 256))
(declare-fun x342 () (_ BitVec 256))
(declare-fun x22 () (_ BitVec 256))
(declare-fun x347 () Bool)
(declare-fun x21 () Bool)
(declare-fun x373 () Bool)
(declare-fun x285 () (_ BitVec 256))
(declare-fun x350 () Bool)
(declare-fun x13 () Bool)
(declare-fun x311 () (_ BitVec 256))
(declare-fun x147 () Bool)
(declare-fun x230 () Bool)
(declare-fun x115 () (_ BitVec 256))
(declare-fun x380 () (_ BitVec 256))
(declare-fun x441 () Bool)
(declare-fun x155 () Bool)
(declare-fun x319 () Bool)
(declare-fun x301 () Bool)
(declare-fun x11 ((_ BitVec 256)) (_ BitVec 256))
(declare-fun x242 ((_ BitVec 256)) (_ BitVec 256))
(declare-fun x201 () Bool)
(declare-fun x151 () Bool)
(declare-fun x96 () (_ BitVec 256))
(declare-fun x159 () (_ BitVec 256))
(declare-fun x66 () Bool)
(declare-fun x168 () (_ BitVec 256))
(declare-fun x465 () Bool)
(declare-fun x27 () (_ BitVec 256))
(declare-fun x181 () Bool)
(declare-fun x460 () (_ BitVec 256))
(declare-fun x56 () Bool)
(declare-fun x203 () (_ BitVec 256))
(declare-fun x249 () Bool)
(declare-fun x186 () (_ BitVec 256))
(declare-fun x34 () (_ BitVec 256))
(declare-fun x467 () Bool)
(declare-fun x388 () (_ BitVec 256))
(declare-fun x417 () Bool)
(declare-fun x297 () Bool)
(declare-fun x234 () (_ BitVec 256))
(declare-fun x395 () Bool)
(declare-fun x298 () (_ BitVec 256))
(declare-fun x423 () Bool)
(declare-fun x256 () (_ BitVec 256))
(declare-fun x216 () Bool)
(declare-fun x100 () Bool)
(declare-fun x414 ((_ BitVec 256)) (_ BitVec 256))
(declare-fun x209 () Bool)
(declare-fun x435 () Bool)
(declare-fun x252 () Bool)
(declare-fun x103 () (_ BitVec 256))
(declare-fun x404 () Bool)
(declare-fun x118 () Bool)
(declare-fun x199 () Bool)
(declare-fun x337 () Bool)
(declare-fun x165 ((_ BitVec 256)) (_ BitVec 256))
(declare-fun x283 () (_ BitVec 256))
(declare-fun x406 () Bool)
(declare-fun x381 () (_ BitVec 256))
(declare-fun x302 () Bool)
(declare-fun x95 () Bool)
(declare-fun x10 () Bool)
(declare-fun x317 () (_ BitVec 256))
(declare-fun x202 () (_ BitVec 256))
(declare-fun x329 () (_ BitVec 256))
(declare-fun x132 () (_ BitVec 256))
(declare-fun x221 ((_ BitVec 256)) (_ BitVec 256))
(declare-fun x59 () Bool)
(declare-fun x267 ((_ BitVec 256)) (_ BitVec 256))
(declare-fun x362 () (_ BitVec 256))
(declare-fun x36 () (_ BitVec 256))
(declare-fun x359 () (_ BitVec 256))
(declare-fun x405 () Bool)
(declare-fun x340 () (_ BitVec 256))
(declare-fun x260 () (_ BitVec 256))
(declare-fun x449 ((_ BitVec 256)) Bool)
(declare-fun x255 () (_ BitVec 256))
(declare-fun x49 () Bool)
(declare-fun x37 ((_ BitVec 256)) (_ BitVec 256))
(declare-fun x275 () (_ BitVec 256))
(declare-fun x420 () (_ BitVec 256))
(declare-fun x30 () Bool)
(declare-fun x349 () Bool)
(declare-fun x387 () (_ BitVec 256))
(declare-fun x193 () (_ BitVec 256))
(declare-fun x81 () Bool)
(declare-fun x54 () Bool)
(declare-fun x35 () (_ BitVec 256))
(declare-fun x422 () Bool)
(declare-fun x224 () Bool)
(declare-fun x120 () (_ BitVec 256))
(declare-fun x358 () Bool)
(declare-fun x123 () (_ BitVec 256))
(declare-fun x215 () (_ BitVec 256))
(declare-fun x361 () (_ BitVec 256))
(declare-fun x225 () Bool)
(declare-fun x289 () (_ BitVec 256))
(declare-fun x86 () Bool)
(declare-fun x370 () (_ BitVec 256))
(declare-fun x396 () (_ BitVec 256))
(declare-fun x428 () (_ BitVec 256))
(declare-fun x382 () Bool)
(declare-fun x458 () (_ BitVec 256))
(declare-fun x233 () Bool)
(declare-fun x292 () Bool)
(declare-fun x354 () (_ BitVec 256))
(declare-fun x157 () Bool)
(declare-fun x272 () (_ BitVec 256))
(declare-fun x43 () Bool)
(declare-fun x416 () (_ BitVec 256))
(declare-fun x16 () Bool)
(declare-fun x296 () Bool)
(declare-fun x257 () (_ BitVec 256))
(declare-fun x12 () Bool)
(declare-fun x348 () Bool)
(declare-fun x238 () (_ BitVec 256))
(declare-fun x282 () (_ BitVec 256))
(declare-fun x438 () (_ BitVec 256))
(declare-fun x299 () Bool)
(declare-fun x232 () (_ BitVec 256))
(declare-fun x148 () Bool)
(declare-fun x410 () (_ BitVec 256))
(declare-fun x25 () Bool)
(declare-fun x226 () (_ BitVec 256))
(declare-fun x190 () Bool)
(declare-fun x365 () Bool)
(declare-fun x286 () Bool)
(declare-fun x143 () Bool)
(declare-fun x446 () Bool)
(declare-fun x407 () (_ BitVec 256))
(declare-fun x273 () Bool)
(declare-fun x205 () (_ BitVec 256))
(declare-fun x133 () Bool)
(declare-fun x48 () Bool)
(declare-fun x164 () Bool)
(declare-fun x8 () (_ BitVec 256))
(declare-fun x241 () (_ BitVec 256))
(declare-fun x7 () (_ BitVec 256))
(declare-fun x291 () Bool)
(declare-fun x280 () Bool)
(declare-fun x47 () Bool)
(declare-fun x229 () Bool)
(declare-fun x277 () Bool)
(declare-fun x107 () Bool)
(declare-fun x375 () (_ BitVec 256))
(declare-fun x300 () (_ BitVec 256))
(declare-fun x211 () Bool)
(declare-fun x318 () (_ BitVec 256))
(declare-fun x113 () (_ BitVec 256))
(declare-fun x367 () Bool)
(declare-fun x409 () Bool)
(declare-fun x171 () Bool)
(declare-fun x294 () Bool)
(declare-fun x344 () Bool)
(declare-fun x136 () (_ BitVec 256))
(declare-fun x445 () (_ BitVec 256))
(declare-fun x418 () (_ BitVec 256))
(declare-fun x87 () Bool)
(declare-fun x451 () (_ BitVec 256))
(declare-fun x142 () Bool)
(declare-fun x466 () (_ BitVec 256))
(declare-fun x192 () Bool)
(declare-fun x384 () (_ BitVec 256))
(declare-fun x45 () Bool)
(declare-fun x369 () (_ BitVec 256))
(declare-fun x180 () (_ BitVec 256))
(declare-fun x235 () Bool)
(declare-fun x108 () Bool)
(declare-fun x341 () (_ BitVec 256))
(declare-fun x156 () Bool)
(declare-fun x239 () (_ BitVec 256))
(declare-fun x236 () Bool)
(declare-fun x126 () (_ BitVec 256))
(declare-fun x323 () (_ BitVec 256))
(declare-fun x243 () (_ BitVec 256))
(declare-fun x76 () (_ BitVec 256))
(declare-fun x265 () Bool)
(declare-fun x112 () Bool)
(declare-fun x390 () Bool)
(declare-fun x447 () Bool)
(declare-fun x218 () (_ BitVec 256))
(declare-fun x57 () (_ BitVec 256))
(declare-fun x73 () (_ BitVec 256))
(declare-fun x219 () (_ BitVec 256))
(declare-fun x399 () (_ BitVec 256))
(declare-fun x214 () (_ BitVec 256))
(declare-fun x400 () (_ BitVec 256))
(declare-fun x158 () (_ BitVec 256))
(declare-fun x402 () (_ BitVec 256))
(declare-fun x339 () (_ BitVec 256))
(declare-fun x308 () (_ BitVec 256))
(declare-fun x237 () Bool)
(declare-fun x372 () Bool)
(declare-fun x425 () Bool)
(declare-fun x144 () Bool)
(declare-fun x138 () (_ BitVec 256))
(define-fun x166 ((x357 (_ BitVec 256)) (x366 (_ BitVec 256))) Bool (= x357 (bvudiv (bvmul x366 x357) x366)))
(define-fun x110 ((x357 (_ BitVec 256)) (x366 (_ BitVec 256))) Bool (= x357 (bvsdiv (bvmul x357 x366) x366)))
(define-fun x452 ((x357 (_ BitVec 256)) (x366 (_ BitVec 256))) Bool (= x357 (bvsdiv (bvmul x366 x357) x366)))
(define-fun x245 ((x200 (_ BitVec 256))) (_ BitVec 256) (_ bv0 256))
(define-fun x128 ((x200 (_ BitVec 256))) (_ BitVec 256) (_ bv0 256))
(define-fun x98 ((x200 (_ BitVec 256))) (_ BitVec 256) (_ bv0 256))
(define-fun x58 ((x200 (_ BitVec 256))) (_ BitVec 256) (_ bv0 256))
(define-fun x254 ((x200 (_ BitVec 256))) (_ BitVec 256) (_ bv0 256))
(define-fun x78 ((x200 (_ BitVec 256))) (_ BitVec 256) (_ bv0 256))
(define-fun x290 ((x200 (_ BitVec 256))) (_ BitVec 256) (_ bv0 256))
(define-fun x379 ((x200 (_ BitVec 256))) (_ BitVec 256) (_ bv0 256))
(define-fun x176 ((x200 (_ BitVec 256))) (_ BitVec 256) (_ bv0 256))
(define-fun x172 ((x200 (_ BitVec 256))) (_ BitVec 256) (_ bv0 256))
(define-fun x353 ((x200 (_ BitVec 256))) (_ BitVec 256) (_ bv0 256))
(define-fun x374 ((x200 (_ BitVec 256))) (_ BitVec 256) (_ bv0 256))
(define-fun x124 ((x200 (_ BitVec 256))) (_ BitVec 256) (_ bv0 256))
(define-fun x140 ((x200 (_ BitVec 256))) (_ BitVec 256) (_ bv0 256))
(define-fun x426 ((x200 (_ BitVec 256))) (_ BitVec 256) (_ bv0 256))
(define-fun x327 ((x200 (_ BitVec 256))) (_ BitVec 256) (_ bv0 256))
(define-fun x79 ((x200 (_ BitVec 256))) (_ BitVec 256) (_ bv0 256))
(define-fun x29 ((x200 (_ BitVec 256))) (_ BitVec 256) (_ bv0 256))
(define-fun x436 ((x200 (_ BitVec 256))) (_ BitVec 256) (ite (= x200 x318) x14 (x414 x200)))
(define-fun x450 ((x200 (_ BitVec 256))) (_ BitVec 256) (ite (= x200 x39) x424 (x267 x200)))
(define-fun x270 ((x200 (_ BitVec 256))) (_ BitVec 256) (ite (= x200 x39) x57 (x37 x200)))
(define-fun x421 ((x200 (_ BitVec 256))) (_ BitVec 256) (ite (= x200 x39) x214 (x33 x200)))
(define-fun x352 ((x200 (_ BitVec 256))) (_ BitVec 256) (ite (= x200 x39) x261 (x450 x200)))
(define-fun x3 ((x200 (_ BitVec 256))) (_ BitVec 256) (ite (= x39 x200) x238 (x270 x200)))
(define-fun x264 ((x200 (_ BitVec 256))) (_ BitVec 256) (ite (= x200 x39) x322 (x74 x200)))
(define-fun x321 ((x200 (_ BitVec 256))) (_ BitVec 256) (ite x372 (x33 x200) (ite x382 (x33 x200) (ite x167 (x33 x200) (x421 x200)))))
(define-fun x179 ((x200 (_ BitVec 256))) (_ BitVec 256) (ite (= x200 x361) x428 (x321 x200)))
(define-fun x376 ((x200 (_ BitVec 256))) (_ BitVec 256) (ite x174 (x321 x200) (ite x95 (x321 x200) (ite x349 (x321 x200) (x179 x200)))))
(define-fun x320 ((x200 (_ BitVec 256))) (_ BitVec 256) (ite (= x200 x61) x212 (x376 x200)))
(define-fun x259 ((x200 (_ BitVec 256))) (_ BitVec 256) (ite x145 (ite x40 (x376 x200) (x320 x200)) (x33 x200)))
(define-fun x442 ((x200 (_ BitVec 256))) (_ BitVec 256) (ite x372 (x267 x200) (ite x382 (x267 x200) (ite x167 (x267 x200) (x352 x200)))))
(define-fun x437 ((x200 (_ BitVec 256))) (_ BitVec 256) (ite (= x200 x361) x8 (x442 x200)))
(define-fun x279 ((x200 (_ BitVec 256))) (_ BitVec 256) (ite (= x361 x200) x76 (x437 x200)))
(define-fun x247 ((x200 (_ BitVec 256))) (_ BitVec 256) (ite x174 (x442 x200) (ite x95 (x442 x200) (ite x349 (x442 x200) (x279 x200)))))
(define-fun x161 ((x200 (_ BitVec 256))) (_ BitVec 256) (ite (= x61 x200) x150 (x247 x200)))
(define-fun x117 ((x200 (_ BitVec 256))) (_ BitVec 256) (ite (= x61 x200) x1 (x161 x200)))
(define-fun x325 ((x200 (_ BitVec 256))) (_ BitVec 256) (ite x145 (ite x40 (x247 x200) (x117 x200)) (x267 x200)))
(define-fun x127 ((x200 (_ BitVec 256))) (_ BitVec 256) (ite x372 (x37 x200) (ite x382 (x37 x200) (ite x167 (x37 x200) (x3 x200)))))
(define-fun x64 ((x200 (_ BitVec 256))) (_ BitVec 256) (ite (= x200 x361) x360 (x127 x200)))
(define-fun x220 ((x200 (_ BitVec 256))) (_ BitVec 256) (ite (= x361 x200) x187 (x64 x200)))
(define-fun x55 ((x200 (_ BitVec 256))) (_ BitVec 256) (ite x174 (x127 x200) (ite x95 (x127 x200) (ite x349 (x127 x200) (x220 x200)))))
(define-fun x336 ((x200 (_ BitVec 256))) (_ BitVec 256) (ite (= x200 x61) x317 (x55 x200)))
(define-fun x97 ((x200 (_ BitVec 256))) (_ BitVec 256) (ite (= x61 x200) x464 (x336 x200)))
(define-fun x457 ((x200 (_ BitVec 256))) (_ BitVec 256) (ite x145 (ite x40 (x55 x200) (x97 x200)) (x37 x200)))
(define-fun x17 ((x200 (_ BitVec 256))) (_ BitVec 256) (ite x372 (x74 x200) (ite x382 (x74 x200) (ite x167 (x74 x200) (x264 x200)))))
(define-fun x263 ((x200 (_ BitVec 256))) (_ BitVec 256) (ite (= x361 x200) x396 (x17 x200)))
(define-fun x104 ((x200 (_ BitVec 256))) (_ BitVec 256) (ite x174 (x17 x200) (ite x95 (x17 x200) (ite x349 (x17 x200) (x263 x200)))))
(define-fun x338 ((x200 (_ BitVec 256))) (_ BitVec 256) (ite (= x61 x200) x461 (x104 x200)))
(define-fun x394 ((x200 (_ BitVec 256))) (_ BitVec 256) (ite x145 (ite x40 (x104 x200) (x338 x200)) (x74 x200)))
(define-fun x363 ((x200 (_ BitVec 256))) (_ BitVec 256) (ite (= x24 x200) x298 (x325 x200)))
(define-fun x184 ((x200 (_ BitVec 256))) (_ BitVec 256) (ite (= x200 x24) x153 (x457 x200)))
(define-fun x67 ((x200 (_ BitVec 256))) (_ BitVec 256) (ite (= x24 x200) x313 (x259 x200)))
(define-fun x207 ((x200 (_ BitVec 256))) (_ BitVec 256) (ite (= x24 x200) x244 (x363 x200)))
(define-fun x91 ((x200 (_ BitVec 256))) (_ BitVec 256) (ite (= x24 x200) x266 (x184 x200)))
(define-fun x269 ((x200 (_ BitVec 256))) (_ BitVec 256) (ite (= x200 x24) x418 (x394 x200)))
(define-fun x105 ((x200 (_ BitVec 256))) (_ BitVec 256) (ite x235 (x259 x200) (ite x83 (x259 x200) (ite x348 (x259 x200) (x67 x200)))))
(define-fun x70 ((x200 (_ BitVec 256))) (_ BitVec 256) (ite (= x200 x282) x410 (x105 x200)))
(define-fun x6 ((x200 (_ BitVec 256))) (_ BitVec 256) (ite x367 (x105 x200) (ite x293 (x105 x200) (ite x142 (x105 x200) (x70 x200)))))
(define-fun x4 ((x200 (_ BitVec 256))) (_ BitVec 256) (ite (= x202 x200) x260 (x6 x200)))
(define-fun x52 ((x200 (_ BitVec 256))) (_ BitVec 256) (ite x253 (ite x229 (x6 x200) (x4 x200)) (x259 x200)))
(define-fun x431 ((x200 (_ BitVec 256))) (_ BitVec 256) (ite x235 (x325 x200) (ite x83 (x325 x200) (ite x348 (x325 x200) (x207 x200)))))
(define-fun x411 ((x200 (_ BitVec 256))) (_ BitVec 256) (ite x235 (x457 x200) (ite x83 (x457 x200) (ite x348 (x457 x200) (x91 x200)))))
(define-fun x345 ((x200 (_ BitVec 256))) (_ BitVec 256) (ite x235 (x394 x200) (ite x83 (x394 x200) (ite x348 (x394 x200) (x269 x200)))))
(define-fun x38 ((x200 (_ BitVec 256))) (_ BitVec 256) (ite (= x200 x282) x380 (x431 x200)))
(define-fun x175 ((x200 (_ BitVec 256))) (_ BitVec 256) (ite (= x282 x200) x2 (x411 x200)))
(define-fun x306 ((x200 (_ BitVec 256))) (_ BitVec 256) (ite (= x282 x200) x217 (x38 x200)))
(define-fun x334 ((x200 (_ BitVec 256))) (_ BitVec 256) (ite (= x200 x282) x439 (x175 x200)))
(define-fun x331 ((x200 (_ BitVec 256))) (_ BitVec 256) (ite x367 (x431 x200) (ite x293 (x431 x200) (ite x142 (x431 x200) (x306 x200)))))
(define-fun x228 ((x200 (_ BitVec 256))) (_ BitVec 256) (ite x367 (x411 x200) (ite x293 (x411 x200) (ite x142 (x411 x200) (x334 x200)))))
(define-fun x102 ((x200 (_ BitVec 256))) (_ BitVec 256) (ite (= x200 x202) x44 (x331 x200)))
(define-fun x240 ((x200 (_ BitVec 256))) (_ BitVec 256) (ite (= x200 x202) x215 (x228 x200)))
(assert (= x330 (or x235 x137)))
(assert (= x398 (and x206 x107)))
(assert (= (and (=> (and (= x160 x454) (not x430)) x319) (=> (and (and (or (and x49 (= x454 x295)) (and (not x49) (and (or (and (and (= x92 x295) (= (bvadd x218 x22) x360) (= (x139 (_ bv64 256) x248 (_ bv0 256)) x361) (bvuge (_ bv4722366482869645213695 256) x360) (bvule x205 (_ bv20282409603651670423947251286015 256)) (= x396 (x17 x416)) (= x92 (bvadd (_ bv96 256) x136)) (= (x139 (_ bv64 256) x248 (_ bv0 256)) x416) (= x136 (bvadd (_ bv128 256) x234)) (bvule x396 (_ bv3 256)) (bvule x218 (_ bv4722366482869645213695 256)) (= (x64 x361) x187) (bvule x428 (_ bv20282409603651670423947251286015 256)) (= (bvudiv x120 (_ bv10000000000 256)) x22) (= (x127 x416) x218) (bvule x8 (_ bv4722366482869645213695 256)) (= x8 (x442 x416)) (= x234 (bvadd x454 (_ bv96 256))) (= x205 (x321 x416)) (= (x321 x361) x428) (bvule x187 (_ bv4722366482869645213695 256)) (bvuge (_ bv4722366482869645213695 256) x76) (= (_ bv0 256) x307) (= (x437 x361) x76) (= (_ bv0 256) x180)) (not x252)) (and x252 (= x295 x454))) (and (= x188 (bvadd (bvneg x120) (_ bv0 256))) (= (= (_ bv0 256) x188) x252))))) (and (= (_ bv0 256) x375) (= x49 (= x248 (_ bv0 256))))) x430) x337)) x224))
(assert (= (and x393 (not x154)) x204))
(assert (= (or x90 x167 x382) x250))
(assert (= (x139 (_ bv64 256) x378 (_ bv72 256)) (x94 (x139 (_ bv64 256) x378 (_ bv72 256)))))
(assert (= (_ bv0 256) (x94 (_ bv1889567281 256))))
(assert (= (and x373 x246) x347))
(assert (not (x449 (x139 (_ bv64 256) (_ bv0 256) (_ bv0 256)))))
(assert (= (or x302 x350) x87))
(assert (= (=> (and (= x61 (x139 (_ bv64 256) x378 (_ bv0 256))) (= x122 x369) (bvuge (_ bv4722366482869645213695 256) x1) (= (x376 x61) x212) (bvuge (_ bv20282409603651670423947251286015 256) x212) (= (x336 x61) x464) (= x1 (x161 x61)) (bvuge (_ bv4722366482869645213695 256) x464)) x54) x277))
(assert (= x310 (and x107 (not x206))))
(assert (not (x449 (x139 (_ bv64 256) x248 (_ bv0 256)))))
(assert (= (and x430 x296) x286))
(assert (= (_ bv0 256) (x94 (_ bv4722366482869645213695 256))))
(assert (= x346 (or x398 x405)))
(assert (= (=> (and (= x46 (bvult (_ bv0 256) x342)) (= x342 (bvadd (bvneg x400) x466))) (and (=> (not x46) x86) (=> (and (and (= (not (= x400 (_ bv0 256))) x134) (bvuge (_ bv20282409603651670423947251286015 256) x62) (= x304 (not (= x466 (_ bv0 256)))) (= (x259 x329) x62) (= x329 (x139 (_ bv64 256) x378 (_ bv0 256)))) x46) (and (=> (and (and (and (= (_ bv0 256) x169) (= (= x400 (_ bv0 256)) x233)) (or (and (= x141 x32) x233) (and (not x233) (and (= x81 (= (_ bv0 256) x62)) (or (and (not x81) (and (bvule x75 (_ bv20282409603651670423947251286015 256)) (bvule x298 (_ bv4722366482869645213695 256)) (= x5 (x139 (_ bv64 256) x400 (_ bv0 256))) (= x313 (x259 x24)) (= (x184 x24) x266) (bvuge (_ bv20282409603651670423947251286015 256) x313) (= x438 (bvadd (_ bv128 256) x96)) (= (bvadd (_ bv96 256) x32) x96) (= x298 (bvadd x126 (bvneg x381))) (= x285 (bvadd x438 (_ bv96 256))) (bvuge (_ bv4722366482869645213695 256) x244) (bvuge (_ bv4722366482869645213695 256) x153) (= x381 (bvudiv x62 (_ bv10000000000 256))) (= (x394 x5) x418) (= (x139 (_ bv64 256) x400 (_ bv0 256)) x24) (= x244 (x363 x24)) (= (_ bv0 256) x50) (bvuge (_ bv4722366482869645213695 256) x266) (= x285 x141) (= (x325 x5) x126) (= (_ bv0 256) x77) (bvuge (_ bv3 256) x418) (bvuge (_ bv4722366482869645213695 256) x126) (= x153 (x457 x5)) (= x75 (x259 x5)))) (and x81 (= x32 x141))))))) x134) x432) (=> (and (= x32 x458) (not x134)) x314))))) x365))
(assert (= x66 (and x273 x15)))
(assert (= (and (not x304) x192) x463))
(assert (bvult (_ bv10000 256) (x139 (_ bv64 256) x248 (_ bv0 256))))
(assert (= (=> (= x141 x458) x314) x432))
(assert (= (_ bv64 256) (x163 (x139 (_ bv64 256) x378 (_ bv72 256)))))
(assert (bvugt (x139 (_ bv64 256) x378 (_ bv71 256)) (_ bv10000 256)))
(assert (= x59 (and x30 (not x252))))
(assert (= x143 (=> (= x385 x356) x284)))
(assert (x449 (_ bv1889567281 256)))
(assert (= (and x230 x131) x444))
(assert (= x289 (x242 (x139 (_ bv64 256) x289 (_ bv0 256)))))
(assert (= (_ bv0 256) (x262 (x139 (_ bv64 256) x400 (_ bv0 256)))))
(assert (= (or x40 x12) x145))
(assert (= x466 (x242 (x139 (_ bv64 256) x466 (_ bv0 256)))))
(assert (= x448 (and x170 x89)))
(assert (= (and x412 x233) x348))
(assert (= x271 (=> (= x123 x109) x305)))
(assert (= (and x393 x154) x167))
(assert (= x137 (or x45 x83 x348)))
(assert (= (and x191 (not x81)) x45))
(assert (= (or x292 x367) x13))
(assert (=> (bvuge (_ bv10000 256) x466) (= (_ bv0 256) (x94 x466))))
(assert (=> (bvule x248 (_ bv10000 256)) (= (_ bv0 256) (x94 x248))))
(assert (= x393 (and x347 x371)))
(assert (x449 (_ bv57896044618658097711785492504343953926634992332820282019728792003956564819967 256)))
(assert (= x435 (and x409 x355)))
(assert (= (=> (= x461 x103) x277) x25))
(assert (= (and x304 x192) x107))
(assert (= (x139 (_ bv64 256) x378 (_ bv71 256)) (x94 (x139 (_ bv64 256) x378 (_ bv71 256)))))
(assert (= (_ bv0 256) (x94 (_ bv57896044618658097711785492504343953926634992332820282019728792003956564819967 256))))
(assert (=> (bvule x400 (_ bv10000 256)) (= (x94 x400) (_ bv0 256))))
(assert (= (and x425 x68) x350))
(assert (= (and x101 x148) x288))
(assert (=> (bvule x318 (_ bv10000 256)) (= (x94 x318) (_ bv0 256))))
(assert (= x401 (or x434 x444)))
(assert (= (=> (and (and (= x9 (_ bv0 256)) (bvule x138 (_ bv20282409603651670423947251286015 256)) (= x183 (x139 (_ bv64 256) (_ bv0 256) (_ bv0 256))) (bvule (_ bv1 256) x429) (= (= x138 (_ bv0 256)) x162) (= x429 (x221 x241)) (= (x52 x183) x138) (= x149 (_ bv1889567281 256))) (= x340 (_ bv36 256))) x162) x86))
(assert (= x142 (and x417 x199)))
(assert (=> (bvule x289 (_ bv10000 256)) (= (_ bv0 256) (x94 x289))))
(assert (= (and x49 x286) x349))
(assert (= x390 (or x51 x174)))
(assert (= (and x181 (not x41)) x71))
(assert (= x118 (and (not x373) x246)))
(assert (= (and x252 x30) x95))
(assert (=> (bvule x42 (_ bv10000 256)) (= (x94 x42) (_ bv0 256))))
(assert (= x88 (and (not x456) x310)))
(assert (= x281 (and (not x351) x390)))
(assert (= (_ bv0 256) (x94 (_ bv20282409603651670423947251286015 256))))
(assert (not (x449 (x139 (_ bv64 256) x400 (_ bv0 256)))))
(assert (= x229 (and x213 x13)))
(assert (x449 (_ bv4294967295 256)))
(assert (= x131 (and x148 (not x101))))
(assert (= (and x134 x225) x412))
(assert (= (_ bv64 256) (x163 (x139 (_ bv64 256) x289 (_ bv0 256)))))
(assert (= x225 (and x87 x46)))
(assert (x449 (_ bv10000000000 256)))
(assert (= (x139 (_ bv64 256) x378 (_ bv0 256)) (x94 (x139 (_ bv64 256) x378 (_ bv0 256)))))
(assert (not x389))
(assert (= (and x170 (not x89)) x133))
(assert (= (_ bv0 256) (x94 (_ bv10000000000 256))))
(assert (= (=> (and (and (= x73 (_ bv36 256)) (not (= x241 x42)) (bvule x189 (_ bv57896044618658097711785492504343953926634992332820282019728792003956564819967 256)) (bvule x419 (_ bv1461501637330902918203684832716283019655932542975 256)) (bvule (_ bv0 256) x408) (bvule (_ bv0 256) x119) x299 (bvule x241 (_ bv1461501637330902918203684832716283019655932542975 256)) (bvuge x341 (_ bv0 256)) (bvule x362 (_ bv4294967295 256)) (bvule (_ bv0 256) x419) (bvuge (_ bv1461501637330902918203684832716283019655932542975 256) x42) (bvuge x197 (_ bv0 256)) (bvuge (_ bv1461501637330902918203684832716283019655932542975 256) x152) (bvuge x186 (_ bv0 256)) (bvuge x362 (_ bv0 256)) (bvuge (_ bv115792089237316195423570985008687907853269984665640564039457584007913129639935 256) x308) (bvuge (_ bv115792089237316195423570985008687907853269984665640564039457584007913129639935 256) x407) (bvule (_ bv36 256) x189) (= x121 (bvult (_ bv0 256) (x221 x42))) (bvuge x402 (_ bv0 256)) (= x299 (bvult (_ bv0 256) (x221 x241))) (= (_ bv0 256) x311) (bvuge (_ bv115792089237316195423570985008687907853269984665640564039457584007913129639935 256) x341) (bvule x119 (_ bv115792089237316195423570985008687907853269984665640564039457584007913129639935 256)) (bvule (_ bv0 256) x308) (bvule (_ bv0 256) x407) (bvule (_ bv1 256) x241) (bvuge x152 (_ bv0 256)) (bvule x186 (_ bv115792089237316195423570985008687907853269984665640564039457584007913129639935 256)) (bvule x408 (_ bv115792089237316195423570985008687907853269984665640564039457584007913129639935 256)) x121 (bvuge (_ bv1461501637330902918203684832716283019655932542975 256) x402) (bvule (_ bv1 256) x42) (bvuge (_ bv1461501637330902918203684832716283019655932542975 256) x197)) (and (and (= (_ bv0 256) x278) (bvule x219 (_ bv1461501637330902918203684832716283019655932542975 256)) (= x53 x219) (= x219 (x11 (_ bv4 256))) (= (_ bv1889567281 256) x257) (= x26 (_ bv0 256)) (= x359 (x221 x241)) (= (_ bv0 256) x343) (= x26 (x33 x451)) (bvule (_ bv1 256) x359) (= x451 (x139 (_ bv64 256) (_ bv0 256) (_ bv0 256)))) (and (and (and (= x462 (x436 x241)) (= (x414 x318) x14) (= (ite (= x378 x219) (_ bv0 256) x219) x248) (= (x139 (_ bv64 256) x378 (_ bv0 256)) x256) (= x53 x300) (= x178 (x74 x256)) (= x41 (= x397 (_ bv0 256))) (= x14 x111) (= (x267 x256) x150) (= (bvand (_ bv1 256) x178) x397) (= (x221 x241) x23) (= (x33 x256) x427) (bvuge x23 (_ bv1 256)) (= (_ bv1545185628 256) x132) (bvule x317 (_ bv4722366482869645213695 256)) (= (_ bv352 256) x223) (= x197 x318) (= (x37 x256) x317) (bvuge (_ bv4722366482869645213695 256) x150) (= x323 x462) (bvule x427 (_ bv20282409603651670423947251286015 256)) (bvule x178 (_ bv3 256)) (= x130 (_ bv0 256))) (or (and (and (bvuge (_ bv1461501637330902918203684832716283019655932542975 256) x195) (= x195 (x335 x129)) (= x129 (x139 (_ bv64 256) x378 (_ bv71 256))) (= x195 x289)) (not x41)) (and x41 (= x289 (_ bv0 256))))) (= x197 x378)))) x198) x389))
(assert (x449 (_ bv1461501637330902918203684832716283019655932542975 256)))
(assert (= x86 x151))
(assert (= x68 (or x145 x118)))
(assert (= (and (not x233) x412) x191))
(assert (= (or x377 x71) x246))
(assert (x449 (_ bv115792089237316195423570985008687907853269984665640564039457584007913129639935 256)))
(assert (not (x449 (x139 (_ bv64 256) x466 (_ bv0 256)))))
(assert (= x284 (=> (= x123 x385) x305)))
(assert (x449 (_ bv4722366482869645213695 256)))
(assert (=> (bvuge (_ bv10000 256) x241) (= (x94 x241) (_ bv0 256))))
(assert (= x305 (=> (and (bvuge (_ bv20282409603651670423947251286015 256) x260) (= x260 (x6 x202)) (= x283 (x240 x202)) (= x158 (x102 x202)) (bvuge (_ bv4722366482869645213695 256) x158) (= (x139 (_ bv64 256) x378 (_ bv0 256)) x202) (bvule x283 (_ bv4722366482869645213695 256))) x151)))
(assert (= x170 (and x463 (not x84))))
(assert (= (x139 (_ bv64 256) x289 (_ bv0 256)) (x94 (x139 (_ bv64 256) x289 (_ bv0 256)))))
(assert (= (and (not x15) x273) x465))
(assert (bvugt (x139 (_ bv64 256) x289 (_ bv0 256)) (_ bv10000 256)))
(assert (x449 (_ bv1545185628 256)))
(assert (= (or x372 x250) x296))
(assert (= (and x204 x312) x382))
(assert (= (_ bv71 256) (x262 (x139 (_ bv64 256) x378 (_ bv71 256)))))
(assert (= (and x204 (not x312)) x90))
(assert (= (_ bv0 256) (x94 (_ bv4294967295 256))))
(assert (= (_ bv64 256) (x163 (x139 (_ bv64 256) x466 (_ bv0 256)))))
(assert (= x367 (and x330 (not x304))))
(assert (= (or x133 x448) x72))
(assert (= x292 (or x142 x332 x293)))
(assert (= x314 (and (=> (not x304) x459) (=> (and (and (and (= x417 (= (_ bv0 256) x466)) (= (_ bv0 256) x69)) (or (and (and (and (= x146 (bvadd (bvneg x62) (_ bv0 256))) (= (= (_ bv0 256) x146) x194)) (or x194 (and (not x194) (and (bvule x326 (_ bv3 256)) (= (x345 x85) x326) (bvule x370 (_ bv4722366482869645213695 256)) (bvuge (_ bv4722366482869645213695 256) x380) (= (_ bv0 256) x239) (bvule x439 (_ bv4722366482869645213695 256)) (= x35 (bvadd x458 (_ bv96 256))) (= (x105 x85) x177) (= x354 (_ bv0 256)) (= (x139 (_ bv64 256) x466 (_ bv0 256)) x282) (= x2 (x411 x85)) (bvuge (_ bv4722366482869645213695 256) x2) (bvule x410 (_ bv20282409603651670423947251286015 256)) (= (x175 x282) x439) (= (x431 x85) x370) (= (bvudiv x62 (_ bv10000000000 256)) x226) (bvuge (_ bv4722366482869645213695 256) x217) (= x380 (bvadd x226 x370)) (= (x139 (_ bv64 256) x466 (_ bv0 256)) x85) (= (bvadd (_ bv128 256) x35) x274) (= x217 (x38 x282)) (= (x105 x282) x410) (bvule x177 (_ bv20282409603651670423947251286015 256)))))) (not x417)) x417)) x304) x291))))
(assert (= x287 (=> (= x243 x454) x224)))
(assert (not (x449 (x139 (_ bv64 256) x378 (_ bv0 256)))))
(assert (= (=> (= x160 x295) x319) x337))
(assert (not (x449 (x139 (_ bv64 256) x378 (_ bv71 256)))))
(assert (= (x163 (x139 (_ bv64 256) x378 (_ bv71 256))) (_ bv64 256)))
(assert (= (and (not x134) x225) x235))
(assert (= (or x156 x346) x422))
(assert (= x198 (=> (and (= (bvult (_ bv0 256) x384) x373) (= x384 (bvadd (bvneg x289) x248))) (and (=> (and (not x373) (= x388 (_ bv448 256))) x16) (=> (and (and (= x371 (not (= x289 (_ bv0 256)))) (= x120 (x33 x387)) (= x430 (not (= x248 (_ bv0 256)))) (= x387 (x139 (_ bv64 256) x378 (_ bv0 256))) (bvule x120 (_ bv20282409603651670423947251286015 256))) x373) (and (=> (and (not x371) (= (_ bv448 256) x454)) x224) (=> (and x371 (and (or (and (and (or (and x312 (= (_ bv448 256) x243)) (and (and (bvuge (_ bv4722366482869645213695 256) x238) (= (x270 x39) x238) (bvule x214 (_ bv20282409603651670423947251286015 256)) (bvule x322 (_ bv3 256)) (= x193 (x33 x276)) (= x214 (x33 x39)) (= x261 (x450 x39)) (bvule x424 (_ bv4722366482869645213695 256)) (= (x37 x276) x63) (= x276 (x139 (_ bv64 256) x289 (_ bv0 256))) (bvuge (_ bv4722366482869645213695 256) x63) (= x39 (x139 (_ bv64 256) x289 (_ bv0 256))) (bvuge (_ bv4722366482869645213695 256) x57) (= x159 (_ bv0 256)) (= x424 (x267 x276)) (= (_ bv672 256) x168) (= x322 (x74 x276)) (bvuge (_ bv4722366482869645213695 256) x261) (= (_ bv768 256) x243) (bvuge (_ bv20282409603651670423947251286015 256) x193) (= (_ bv0 256) x403) (= x173 (bvudiv x120 (_ bv10000000000 256))) (= (bvadd (bvneg x173) x63) x57)) (not x312))) (= x312 (= x120 (_ bv0 256)))) (not x154)) (and x154 (= (_ bv448 256) x243))) (and (= x99 (_ bv0 256)) (= (= x289 (_ bv0 256)) x154)))) x287)))))))
(assert (= (and x181 x41) x377))
(assert (= (x262 (x139 (_ bv64 256) x378 (_ bv72 256))) (_ bv72 256)))
(assert (bvugt (x139 (_ bv64 256) x466 (_ bv0 256)) (_ bv10000 256)))
(assert (= (x242 (x139 (_ bv64 256) (_ bv0 256) (_ bv0 256))) (_ bv0 256)))
(assert (= (=> (and (and (= (_ bv1 256) x115) (bvuge (_ bv20282409603651670423947251286015 256) x36) (bvuge (_ bv4722366482869645213695 256) x44) (= x44 (x325 x125)) (= x425 (bvugt (_ bv2 256) x232)) (= (x259 x125) x36) (= x466 (ite (= x219 x378) (_ bv0 256) x219)) (= (x394 x125) x232) (bvule x232 (_ bv3 256)) (= x125 (x139 (_ bv64 256) x378 (_ bv0 256))) (bvule x215 (_ bv4722366482869645213695 256)) (= (x457 x125) x215) (= x27 (bvadd x420 (_ bv128 256))) (= x420 (bvadd (_ bv96 256) x388)) (= (bvadd x27 (_ bv96 256)) x32)) (or (and (not x425) (and (= (x165 x34) x255) (= x34 (x139 (_ bv64 256) x378 (_ bv72 256))) (bvule x255 (_ bv1461501637330902918203684832716283019655932542975 256)) (= x255 x400))) (and (= x400 (_ bv0 256)) x425))) x365) x16))
(assert (= (and x456 x310) x413))
(assert (= (and x81 x191) x83))
(assert (= (=> (= x364 x461) x277) x249))
(assert (= (and x409 (not x355)) x273))
(assert (= (and (not x49) x286) x30))
(assert (= (_ bv0 256) (x262 (x139 (_ bv64 256) x289 (_ bv0 256)))))
(assert (= (_ bv0 256) (x94 (_ bv1545185628 256))))
(assert (= x174 (and (not x430) x296)))
(assert (= x54 (=> (= x369 x388) x16)))
(assert (not (x449 (x139 (_ bv64 256) x289 (_ bv0 256)))))
(assert (= (x139 (_ bv64 256) x248 (_ bv0 256)) (x94 (x139 (_ bv64 256) x248 (_ bv0 256)))))
(assert (= (_ bv0 256) (x262 (x139 (_ bv64 256) (_ bv0 256) (_ bv0 256)))))
(assert (= x157 (=> (= x18 x109) x271)))
(assert (= x156 (or x441 x72)))
(assert (= (x94 (x139 (_ bv64 256) (_ bv0 256) (_ bv0 256))) (x139 (_ bv64 256) (_ bv0 256) (_ bv0 256))))
(assert (= x447 (or x465 x66)))
(assert (= (_ bv64 256) (x163 (x139 (_ bv64 256) x248 (_ bv0 256)))))
(assert (= (_ bv0 256) (x262 (x139 (_ bv64 256) x466 (_ bv0 256)))))
(assert (= (and (not x46) x87) x383))
(assert (= (=> (and (= x213 (= x134 x304)) (= x7 (ite (= x466 x378) (_ bv0 256) x466))) (and (=> (not x213) (and (=> (and (= (= x232 (_ bv0 256)) x206) x304) (and (=> (and (not x206) (and (= (= (_ bv1 256) x232) x456) (or (and x456 (= (_ bv3 256) x356)) (and (not x456) (= x356 x232))))) x143) (=> (and x206 (= x385 (_ bv2 256))) x284))) (=> (and (= (= (_ bv2 256) x232) x84) (not x304)) (and (=> (and (and (or (and (not x89) (= x18 x232)) (and (= (_ bv1 256) x18) x89)) (= (= (_ bv3 256) x232) x89)) (not x84)) x157) (=> (and x84 (= x109 (_ bv0 256))) x271))))) (=> x213 x151))) x459))
(assert (=> (bvule x378 (_ bv10000 256)) (= (x94 x378) (_ bv0 256))))
(assert (= x409 (and x281 x430)))
(assert (= x441 (and x84 x463)))
(assert (bvult (_ bv10000 256) (x139 (_ bv64 256) x378 (_ bv72 256))))
(assert (= x199 (and x330 x304)))
(assert (x449 (_ bv20282409603651670423947251286015 256)))
(assert (bvugt (x139 (_ bv64 256) x400 (_ bv0 256)) (_ bv10000 256)))
(assert (= (=> (= x455 x364) x249) x301))
(assert (= x248 (x242 (x139 (_ bv64 256) x248 (_ bv0 256)))))
(assert (bvult (_ bv10000 256) (x139 (_ bv64 256) x378 (_ bv0 256))))
(assert (= (_ bv64 256) (x163 (x139 (_ bv64 256) x378 (_ bv0 256)))))
(assert (= x192 (and x13 (not x213))))
(assert (not (x449 (x139 (_ bv64 256) x378 (_ bv72 256)))))
(assert (= (and (not x194) x19) x332))
(assert (= (x94 (x139 (_ bv64 256) x466 (_ bv0 256))) (x139 (_ bv64 256) x466 (_ bv0 256))))
(assert (= (and (not x230) x131) x434))
(assert (= (x262 (x139 (_ bv64 256) x378 (_ bv0 256))) (_ bv0 256)))
(assert (= x378 (x242 (x139 (_ bv64 256) x378 (_ bv71 256)))))
(assert (= x302 (and x68 (not x425))))
(assert (= x19 (and (not x417) x199)))
(assert (bvult (_ bv10000 256) (x139 (_ bv64 256) (_ bv0 256) (_ bv0 256))))
(assert (= (x242 (x139 (_ bv64 256) x378 (_ bv0 256))) x378))
(assert (= (=> (and (= x351 (= x371 x430)) (= (ite (= x378 x248) (_ bv0 256) x248) x445)) (and (=> (and (= x122 (bvadd (_ bv96 256) x160)) (not x351)) (and (=> (and x430 (= (= x178 (_ bv0 256)) x355)) (and (=> (and (and (or (and (= x178 x324) (not x15)) (and x15 (= x324 (_ bv3 256)))) (= x15 (= (_ bv2 256) x178))) (not x355)) x209) (=> (and x355 (= x103 (_ bv1 256))) x25))) (=> (and (= x101 (= (_ bv1 256) x178)) (not x430)) (and (=> (and (and (or (and (= x455 (_ bv2 256)) x230) (and (= x455 x178) (not x230))) (= x230 (= (_ bv3 256) x178))) (not x101)) x301) (=> (and (= (_ bv0 256) x364) x101) x249))))) (=> (and x351 (= x369 x160)) x54))) x319))
(assert (= (x242 (x139 (_ bv64 256) x400 (_ bv0 256))) x400))
(assert (= (and x19 x194) x293))
(assert (= x405 (or x413 x88)))
(assert (= (x163 (x139 (_ bv64 256) x400 (_ bv0 256))) (_ bv64 256)))
(assert (= x372 (and x347 (not x371))))
(assert (= (or x229 x422) x253))
(assert (= (=> (= x103 x324) x25) x209))
(assert (= x40 (and x390 x351)))
(assert (= x51 (or x95 x349 x59)))
(assert (= (_ bv0 256) (x94 (_ bv115792089237316195423570985008687907853269984665640564039457584007913129639935 256))))
(assert (= x114 (or x383 x253)))
(assert (= (_ bv64 256) (x163 (x139 (_ bv64 256) (_ bv0 256) (_ bv0 256)))))
(assert (= (_ bv0 256) (x262 (x139 (_ bv64 256) x248 (_ bv0 256)))))
(assert (= x291 x459))
(assert (= (x94 (_ bv1461501637330902918203684832716283019655932542975 256)) (_ bv0 256)))
(assert (= x181 true))
(assert (= (x94 (x139 (_ bv64 256) x400 (_ bv0 256))) (x139 (_ bv64 256) x400 (_ bv0 256))))
(assert (= (or x10 x392) x12))
(assert (= x378 (x242 (x139 (_ bv64 256) x378 (_ bv72 256)))))
(assert (= x392 (or x401 x288)))
(assert (= x10 (or x435 x447)))
(assert (= (and (not x430) x281) x148))
(check-sat)
(exit)
